COMP557_&_COMP331 - Optimisation/Assignment-1/Assignment-1_Solution.lp
Maximize 
3 x14 + 4 y14 + 3 x15 + 4 y15
Subject To 
a1 + b1 + x1 + y1 <= 12
a2 + b2 + x2 + y2 <= 12 
a3 + b3 + x3 + y3 <= 12 
a4 + b4 + x4 + y4 <= 12 
a5 + b5 + x5 + y5 <= 12 
a6 + b6 + x6 + y6 <= 12 
a7 + b7 + x7 + y7 <= 12 
a8 + b8 + x8 + y8 <= 12
a9 + b9 + x9 + y9 <= 12 
a10 + b10 + x10 + y10 <= 12 
a11 + b11 + x11 + y11 <= 12 
a12 + b12 + x12 + y12 <= 12 
a13 + b13 + x13 + y13 <= 12 
a14 + b14 + x14 + y14 <= 12 
a15 + b15 + x15 + y15 <= 12 
a1 + a2 - a6 = 0 
b1 + b2 - b6 = 0 
x1 + x2 - x6 = 0 
y1 + y2 - y6 = 0 
a3 + a7 - a2 = 0 
b3 + b7 - b2 = 0 
x3 + x7 - x2 = 0 
y3 + y7 - y2 = 0
a5 + a9 - a4 = 0 
b5 + b9 - b4 = 0 
x5 + x9 - x4 = 0 
y5 + y9 - y4 = 0 
a8 + a13 - a12 = 0 
b8 + b13 - b12 = 0 
x8 + x13 - x12 = 0 
y8 + y13 - y12 = 0 
a12 - a11 - a15 = 0 
b12 - b11 - b15 = 0 
x12 - x11 - x15 = 0 
y12 - y11 - y15 = 0 
a6 - a10 - a14 = 0 
b6 - b10 - b14 = 0 
x6 - x10 - x14 = 0 
y6 - y10 - y14 = 0 
b1 = 0 
x1 = 0 
y1 = 0 
b5 = 0 
x5 = 0 
y5 = 0 
a9 = 0 
x9 = 0 
y9 = 0 
a13 = 0 
x13 = 0 
y13 = 0 
a3 + a8 + 3 x3 + 3 x8 + y3 + y8 - a4 = 0 
b3 + b8 + 2 x3 + 2 x8 + 2 y3 + 2 y8 - b4 = 0 
a7 + 3 x7 + y7 - a10 - a11 = 0 
b7 + 2 x7 + 2 y7 - b10 - b11 = 0 
-a7 + a10 + a11 >= 0 
a7 >= 0 
-b7 + b10 + b11 >= 0 
b7 >= 0 
x7 - x10 - x11 >= 0 
x10 + x11 >= 0 
y7 - y10 - y11 >= 0 
y10 + y11 >= 0 
- a3 - a8 + a4 >= 0 
a3 + a8 >= 0
- b3 - b8 + b4 >= 0 
b3 + b8 >= 0 
x3 + x8 - x4 >= 0 
x4 >= 0 
y3 + y8 - y4 >= 0 
y4 >= 0 
Bounds 
a1 >= 0 
a2 >= 0 
a3 >= 0 
a4 >= 0 
a5 >= 0 
a6 >= 0 
a7 >= 0 
a8 >= 0 
a9 >= 0 
a10 >= 0 
a11 >= 0 
a12 >= 0
a13 >= 0 
a14 >= 0 
a15 >= 0 
b1 >= 0 
b2 >= 0 
b3 >= 0 
b4 >= 0 
b5 >= 0 
b6 >= 0 
b7 >= 0 
b8 >= 0 
b9 >= 0 
b10 >= 0 
b11 >= 0 
b12 >= 0 
b13 >= 0 
b14 >= 0 
b15 >= 0 
x1 >= 0 
x2 >= 0 
x3 >= 0 
x4 >= 0 
x5 >= 0 
x6 >= 0 
x7 >= 0 
x8 >= 0 
x9 >= 0 
x10 >= 0 
x11 >= 0 
x12 >= 0 
x13 >= 0 
x14 >= 0 
x15 >= 0 
y1 >= 0 
y2 >= 0 
y3 >= 0 
y4 >= 0 
y5 >= 0 
y6 >= 0 
y7 >= 0 
y8 >= 0 
y9 >= 0 
y10 >= 0 
y11 >= 0 
y12 >= 0 
y13 >= 0 
y14 >= 0 
y15 >= 0 
End
